\* Minmax Problem *\
Maximize
Minimize_the_maximum: 7.69305817117 x_0 + 7.88719281472 x_1
 + 7.77949340718 x_10 + 8.16214275683 x_11 + 8.07766746037 x_12
 + 8.08531800097 x_13 + 7.96155385084 x_14 + 8.05934581878 x_15
 + 7.02261867195 x_16 + 8.08855814383 x_17 + 8.29015622218 x_18
 + 7.68106596047 x_19 + 7.36770454204 x_2 + 8.142903272 x_20
 + 8.16214275683 x_21 + 7.31576998299 x_22 + 7.12363290346 x_23
 + 8.13809047833 x_24 + 8.05934581878 x_25 + 7.38984997237 x_26
 + 8.142903272 x_27 + 8.08531800097 x_28 + 7.2629075389 x_29
 + 7.37693754922 x_3 + 7.1993159875 x_30 + 7.52787000431 x_31
 + 7.98314499118 x_32 + 7.59622297014 x_33 + 7.49139374439 x_34
 + 7.10648054202 x_35 + 8.08855814383 x_36 + 7.69813247908 x_37
 + 7.02943293377 x_38 + 7.7945980696 x_39 + 8.08972134538 x_4
 + 7.19565204176 x_40 + 7.38984997237 x_41 + 8.29156555797 x_42
 + 8.07462845302 x_43 + 7.89823660844 x_44 + 7.98076125869 x_45
 + 7.79788439132 x_46 + 7.67345701898 x_47 + 7.27131323654 x_48
 + 8.29825816031 x_49 + 8.08834665432 x_5 + 7.79263695042 x_50
 + 7.88986457611 x_51 + 8.09499325774 x_52 + 8.69898733885 x_53
 + 7.60830261788 x_54 + 7.19954107873 x_55 + 8.58957589786 x_56
 + 7.29712553135 x_57 + 7.49139374439 x_58 + 8.49755643208 x_59
 + 7.39288535492 x_6 + 8.28867069656 x_60 + 7.59622297014 x_61
 + 7.64974316454 x_62 + 7.10648054202 x_63 + 7.67345701898 x_64
 + 7.96897797581 x_65 + 7.5935265094 x_66 + 8.08731275935 x_67
 + 8.2985849311 x_68 + 7.52787000431 x_69 + 7.02261867195 x_7
 + 7.69931799881 x_70 + 7.98834308648 x_71 + 8.19773711586 x_72
 + 8.29507017736 x_73 + 7.79263695042 x_74 + 7.19619004814 x_8
 + 7.26411094894 x_9
Subject To
Max_Type_Act_constraint_Type_Aguirre,_der_Zorn_Gottes: x_45 <= 1
Max_Type_Act_constraint_Type_All_About_Eve: x_60 <= 1
Max_Type_Act_constraint_Type_Apocalypse_now: x_59 <= 1
Max_Type_Act_constraint_Type_Assault_on_Precinct_13: x_26 + x_41 <= 1
Max_Type_Act_constraint_Type_Belle_de_jour: x_10 <= 1
Max_Type_Act_constraint_Type_Ben_Hur: x_52 <= 1
Max_Type_Act_constraint_Type_Black_Hawk_Down: x_37 <= 1
Max_Type_Act_constraint_Type_Bringing_Up_Baby: x_32 <= 1
Max_Type_Act_constraint_Type_Bullitt: x_34 + x_58 <= 1
Max_Type_Act_constraint_Type_City_lights: x_56 <= 1
Max_Type_Act_constraint_Type_Deliverance: x_0 <= 1
Max_Type_Act_constraint_Type_Dirty_Harry: x_39 <= 1
Max_Type_Act_constraint_Type_Excalibur: x_6 <= 1
Max_Type_Act_constraint_Type_Gösta_Berlings_saga: x_23 <= 1
Max_Type_Act_constraint_Type_Herr_Arnes_pengar: x_16 + x_7 <= 1
Max_Type_Act_constraint_Type_Hope_and_Glory: x_2 <= 1
Max_Type_Act_constraint_Type_Inside_Out: x_72 <= 1
Max_Type_Act_constraint_Type_Kagemusha: x_65 <= 1
Max_Type_Act_constraint_Type_La_Belle_et_la_Bête: x_14 <= 1
Max_Type_Act_constraint_Type_Ladri_di_biciclette: x_18 <= 1
Max_Type_Act_constraint_Type_Land_of_the_Dead: x_8 <= 1
Max_Type_Act_constraint_Type_Laura: x_43 <= 1
Max_Type_Act_constraint_Type_Law_and_Order: x_35 + x_63 <= 1
Max_Type_Act_constraint_Type_Lawrence_of_Arabia: x_73 <= 1
Max_Type_Act_constraint_Type_Les_Cousins: x_29 <= 1
Max_Type_Act_constraint_Type_Magnum_Force: x_40 <= 1
Max_Type_Act_constraint_Type_Matrix: x_53 <= 1
Max_Type_Act_constraint_Type_Matrix_Reloaded: x_55 <= 1
Max_Type_Act_constraint_Type_Metropolis: x_42 <= 1
Max_Type_Act_constraint_Type_My_Fair_Lady: x_51 <= 1
Max_Type_Act_constraint_Type_Nostalghia: x_24 <= 1
Max_Type_Act_constraint_Type_Offret: x_20 + x_27 <= 1
Max_Type_Act_constraint_Type_Otto_e_mezzo: x_4 <= 1
Max_Type_Act_constraint_Type_Persepolis: x_5 <= 1
Max_Type_Act_constraint_Type_Persona: x_67 <= 1
Max_Type_Act_constraint_Type_Peter_Pan: x_57 <= 1
Max_Type_Act_constraint_Type_Point_Blank: x_3 <= 1
Max_Type_Act_constraint_Type_Predator: x_46 <= 1
Max_Type_Act_constraint_Type_Prince_of_the_City: x_54 <= 1
Max_Type_Act_constraint_Type_Shane: x_19 <= 1
Max_Type_Act_constraint_Type_Sleuth: x_12 <= 1
Max_Type_Act_constraint_Type_Tempo_di_viaggio: x_30 <= 1
Max_Type_Act_constraint_Type_Teorema: x_48 <= 1
Max_Type_Act_constraint_Type_The_French_Connection: x_50 + x_74 <= 1
Max_Type_Act_constraint_Type_The_Friends_of_Eddie_Coyle: x_31 + x_69 <= 1
Max_Type_Act_constraint_Type_The_General: x_9 <= 1
Max_Type_Act_constraint_Type_The_Jungle_Book: x_33 + x_61 <= 1
Max_Type_Act_constraint_Type_The_Night_of_the_Hunter: x_71 <= 1
Max_Type_Act_constraint_Type_The_Sand_Pebbles: x_62 <= 1
Max_Type_Act_constraint_Type_The_Taking_of_Pelham_One_Two_Three: x_47 + x_64
 <= 1
Max_Type_Act_constraint_Type_Titanic: x_70 <= 1
Max_Type_Act_constraint_Type_Toy_Story_2: x_44 <= 1
Max_Type_Act_constraint_Type_Toy_Story_3: x_49 <= 1
Max_Type_Act_constraint_Type_Une_journée_d'Andreï_Arsenevitch: x_22 <= 1
Max_Type_Act_constraint_Type_Up: x_68 <= 1
Max_Type_Act_constraint_Type_West_Side_Story: x_66 <= 1
Max_Type_Act_constraint_Type_À_bout_de_souffle: x_1 <= 1
Max_Type_Act_constraint_Type_Зеркало: x_11 + x_21 <= 1
Max_Type_Act_constraint_Type_Иваново_детство: x_15 + x_25 <= 1
Max_Type_Act_constraint_Type_Московская_элегия: x_38 <= 1
Max_Type_Act_constraint_Type_Солярис: x_13 + x_28 <= 1
Max_Type_Act_constraint_Type_Сталкер: x_17 + x_36 <= 1
Overlap_Act_constraint_0: x_0 <= 1
Overlap_Act_constraint_1: x_1 <= 1
Overlap_Act_constraint_10: x_10 <= 1
Overlap_Act_constraint_11: x_11 <= 1
Overlap_Act_constraint_12: x_12 + x_13 <= 1
Overlap_Act_constraint_13: x_12 + x_13 <= 1
Overlap_Act_constraint_14: x_14 <= 1
Overlap_Act_constraint_15: x_15 <= 1
Overlap_Act_constraint_16: x_16 + x_17 <= 1
Overlap_Act_constraint_17: x_16 + x_17 <= 1
Overlap_Act_constraint_18: x_18 + x_19 <= 1
Overlap_Act_constraint_19: x_18 + x_19 + x_20 <= 2
Overlap_Act_constraint_2: x_2 <= 1
Overlap_Act_constraint_20: x_19 + x_20 <= 1
Overlap_Act_constraint_21: x_21 <= 1
Overlap_Act_constraint_22: x_22 + x_23 <= 1
Overlap_Act_constraint_23: x_22 + x_23 + x_24 <= 2
Overlap_Act_constraint_24: x_23 + x_24 <= 1
Overlap_Act_constraint_25: x_25 + x_26 <= 1
Overlap_Act_constraint_26: x_25 + x_26 <= 1
Overlap_Act_constraint_27: x_27 <= 1
Overlap_Act_constraint_28: x_28 <= 1
Overlap_Act_constraint_29: x_29 <= 1
Overlap_Act_constraint_3: x_3 <= 1
Overlap_Act_constraint_30: x_30 <= 1
Overlap_Act_constraint_31: x_31 <= 1
Overlap_Act_constraint_32: x_32 + x_33 <= 1
Overlap_Act_constraint_33: x_32 + x_33 <= 1
Overlap_Act_constraint_34: x_34 <= 1
Overlap_Act_constraint_35: x_35 + x_36 <= 1
Overlap_Act_constraint_36: x_35 + x_36 <= 1
Overlap_Act_constraint_37: x_37 <= 1
Overlap_Act_constraint_38: x_38 <= 1
Overlap_Act_constraint_39: x_39 <= 1
Overlap_Act_constraint_4: x_4 + x_5 <= 1
Overlap_Act_constraint_40: x_40 <= 1
Overlap_Act_constraint_41: x_41 + x_42 <= 1
Overlap_Act_constraint_42: x_41 + x_42 <= 1
Overlap_Act_constraint_43: x_43 + x_44 <= 1
Overlap_Act_constraint_44: x_43 + x_44 <= 1
Overlap_Act_constraint_45: x_45 <= 1
Overlap_Act_constraint_46: x_46 + x_47 <= 1
Overlap_Act_constraint_47: x_46 + x_47 <= 1
Overlap_Act_constraint_48: x_48 + x_49 <= 1
Overlap_Act_constraint_49: x_48 + x_49 <= 1
Overlap_Act_constraint_5: x_4 + x_5 <= 1
Overlap_Act_constraint_50: x_50 <= 1
Overlap_Act_constraint_51: x_51 <= 1
Overlap_Act_constraint_52: x_52 <= 1
Overlap_Act_constraint_53: x_53 + x_54 <= 1
Overlap_Act_constraint_54: x_53 + x_54 + x_55 <= 2
Overlap_Act_constraint_55: x_54 + x_55 <= 1
Overlap_Act_constraint_56: x_56 + x_57 <= 1
Overlap_Act_constraint_57: x_56 + x_57 <= 1
Overlap_Act_constraint_58: x_58 + x_59 <= 1
Overlap_Act_constraint_59: x_58 + x_59 <= 1
Overlap_Act_constraint_6: x_6 <= 1
Overlap_Act_constraint_60: x_60 + x_61 <= 1
Overlap_Act_constraint_61: x_61 <= 1
Overlap_Act_constraint_62: x_62 <= 1
Overlap_Act_constraint_63: x_63 <= 1
Overlap_Act_constraint_64: x_64 + x_65 <= 1
Overlap_Act_constraint_65: x_64 + x_65 <= 1
Overlap_Act_constraint_66: x_66 <= 1
Overlap_Act_constraint_67: x_67 + x_68 <= 1
Overlap_Act_constraint_68: x_67 + x_68 + x_69 <= 2
Overlap_Act_constraint_69: x_68 + x_69 <= 1
Overlap_Act_constraint_7: x_7 <= 1
Overlap_Act_constraint_70: x_70 <= 1
Overlap_Act_constraint_71: x_71 + x_72 <= 1
Overlap_Act_constraint_72: x_71 + x_72 <= 1
Overlap_Act_constraint_73: x_73 + x_74 <= 1
Overlap_Act_constraint_74: x_74 <= 1
Overlap_Act_constraint_8: x_8 <= 1
Overlap_Act_constraint_9: x_9 <= 1
SameDay_Act_constraint_0: x_0 <= 1
SameDay_Act_constraint_1: x_1 + x_2 + x_3 <= 1
SameDay_Act_constraint_10: x_10 <= 1
SameDay_Act_constraint_11: x_11 <= 1
SameDay_Act_constraint_12: x_12 + x_13 <= 1
SameDay_Act_constraint_13: x_12 + x_13 <= 1
SameDay_Act_constraint_14: x_14 + x_15 + x_16 + x_17 <= 1
SameDay_Act_constraint_15: x_14 + x_15 + x_16 + x_17 <= 1
SameDay_Act_constraint_16: x_14 + x_15 + x_16 + x_17 <= 1
SameDay_Act_constraint_17: x_14 + x_15 + x_16 + x_17 <= 1
SameDay_Act_constraint_18: x_18 + x_19 + x_20 + x_21 <= 1
SameDay_Act_constraint_19: x_18 + x_19 + x_20 + x_21 <= 1
SameDay_Act_constraint_2: x_1 + x_2 + x_3 <= 1
SameDay_Act_constraint_20: x_18 + x_19 + x_20 + x_21 <= 1
SameDay_Act_constraint_21: x_18 + x_19 + x_20 + x_21 <= 1
SameDay_Act_constraint_22: x_22 + x_23 + x_24 <= 1
SameDay_Act_constraint_23: x_22 + x_23 + x_24 <= 1
SameDay_Act_constraint_24: x_22 + x_23 + x_24 <= 1
SameDay_Act_constraint_25: x_25 + x_26 <= 1
SameDay_Act_constraint_26: x_25 + x_26 <= 1
SameDay_Act_constraint_27: x_27 + x_28 <= 1
SameDay_Act_constraint_28: x_27 + x_28 <= 1
SameDay_Act_constraint_29: x_29 + x_30 + x_31 <= 1
SameDay_Act_constraint_3: x_1 + x_2 + x_3 <= 1
SameDay_Act_constraint_30: x_29 + x_30 + x_31 <= 1
SameDay_Act_constraint_31: x_29 + x_30 + x_31 <= 1
SameDay_Act_constraint_32: x_32 + x_33 + x_34 + x_35 + x_36 <= 1
SameDay_Act_constraint_33: x_32 + x_33 + x_34 + x_35 + x_36 <= 1
SameDay_Act_constraint_34: x_32 + x_33 + x_34 + x_35 + x_36 <= 1
SameDay_Act_constraint_35: x_32 + x_33 + x_34 + x_35 + x_36 <= 1
SameDay_Act_constraint_36: x_32 + x_33 + x_34 + x_35 + x_36 <= 1
SameDay_Act_constraint_37: x_37 <= 1
SameDay_Act_constraint_38: x_38 <= 1
SameDay_Act_constraint_39: x_39 + x_40 <= 1
SameDay_Act_constraint_4: x_4 + x_5 + x_6 <= 1
SameDay_Act_constraint_40: x_39 + x_40 <= 1
SameDay_Act_constraint_41: x_41 + x_42 <= 1
SameDay_Act_constraint_42: x_41 + x_42 <= 1
SameDay_Act_constraint_43: x_43 + x_44 + x_45 + x_46 + x_47 <= 1
SameDay_Act_constraint_44: x_43 + x_44 + x_45 + x_46 + x_47 <= 1
SameDay_Act_constraint_45: x_43 + x_44 + x_45 + x_46 + x_47 <= 1
SameDay_Act_constraint_46: x_43 + x_44 + x_45 + x_46 + x_47 <= 1
SameDay_Act_constraint_47: x_43 + x_44 + x_45 + x_46 + x_47 <= 1
SameDay_Act_constraint_48: x_48 + x_49 + x_50 + x_51 <= 1
SameDay_Act_constraint_49: x_48 + x_49 + x_50 + x_51 <= 1
SameDay_Act_constraint_5: x_4 + x_5 + x_6 <= 1
SameDay_Act_constraint_50: x_48 + x_49 + x_50 + x_51 <= 1
SameDay_Act_constraint_51: x_48 + x_49 + x_50 + x_51 <= 1
SameDay_Act_constraint_52: x_52 <= 1
SameDay_Act_constraint_53: x_53 + x_54 + x_55 <= 1
SameDay_Act_constraint_54: x_53 + x_54 + x_55 <= 1
SameDay_Act_constraint_55: x_53 + x_54 + x_55 <= 1
SameDay_Act_constraint_56: x_56 + x_57 + x_58 + x_59 <= 1
SameDay_Act_constraint_57: x_56 + x_57 + x_58 + x_59 <= 1
SameDay_Act_constraint_58: x_56 + x_57 + x_58 + x_59 <= 1
SameDay_Act_constraint_59: x_56 + x_57 + x_58 + x_59 <= 1
SameDay_Act_constraint_6: x_4 + x_5 + x_6 <= 1
SameDay_Act_constraint_60: x_60 + x_61 + x_62 <= 1
SameDay_Act_constraint_61: x_60 + x_61 + x_62 <= 1
SameDay_Act_constraint_62: x_60 + x_61 + x_62 <= 1
SameDay_Act_constraint_63: x_63 <= 1
SameDay_Act_constraint_64: x_64 + x_65 <= 1
SameDay_Act_constraint_65: x_64 + x_65 <= 1
SameDay_Act_constraint_66: x_66 <= 1
SameDay_Act_constraint_67: x_67 + x_68 + x_69 + x_70 <= 1
SameDay_Act_constraint_68: x_67 + x_68 + x_69 + x_70 <= 1
SameDay_Act_constraint_69: x_67 + x_68 + x_69 + x_70 <= 1
SameDay_Act_constraint_7: x_7 <= 1
SameDay_Act_constraint_70: x_67 + x_68 + x_69 + x_70 <= 1
SameDay_Act_constraint_71: x_71 + x_72 + x_73 + x_74 <= 1
SameDay_Act_constraint_72: x_71 + x_72 + x_73 + x_74 <= 1
SameDay_Act_constraint_73: x_71 + x_72 + x_73 + x_74 <= 1
SameDay_Act_constraint_74: x_71 + x_72 + x_73 + x_74 <= 1
SameDay_Act_constraint_8: x_8 + x_9 <= 1
SameDay_Act_constraint_9: x_8 + x_9 <= 1
SameWeek_Act_constraint_0: x_0 + x_1 + x_2 + x_3 + x_4 + x_5 + x_6 <= 3
SameWeek_Act_constraint_1: x_0 + x_1 + x_2 + x_3 + x_4 + x_5 + x_6 <= 3
SameWeek_Act_constraint_10: x_10 + x_11 + x_12 + x_13 + x_14 + x_15 + x_16
 + x_17 + x_18 + x_19 + x_20 + x_21 <= 3
SameWeek_Act_constraint_11: x_10 + x_11 + x_12 + x_13 + x_14 + x_15 + x_16
 + x_17 + x_18 + x_19 + x_20 + x_21 <= 3
SameWeek_Act_constraint_12: x_10 + x_11 + x_12 + x_13 + x_14 + x_15 + x_16
 + x_17 + x_18 + x_19 + x_20 + x_21 <= 3
SameWeek_Act_constraint_13: x_10 + x_11 + x_12 + x_13 + x_14 + x_15 + x_16
 + x_17 + x_18 + x_19 + x_20 + x_21 <= 3
SameWeek_Act_constraint_14: x_10 + x_11 + x_12 + x_13 + x_14 + x_15 + x_16
 + x_17 + x_18 + x_19 + x_20 + x_21 <= 3
SameWeek_Act_constraint_15: x_10 + x_11 + x_12 + x_13 + x_14 + x_15 + x_16
 + x_17 + x_18 + x_19 + x_20 + x_21 <= 3
SameWeek_Act_constraint_16: x_10 + x_11 + x_12 + x_13 + x_14 + x_15 + x_16
 + x_17 + x_18 + x_19 + x_20 + x_21 <= 3
SameWeek_Act_constraint_17: x_10 + x_11 + x_12 + x_13 + x_14 + x_15 + x_16
 + x_17 + x_18 + x_19 + x_20 + x_21 <= 3
SameWeek_Act_constraint_18: x_10 + x_11 + x_12 + x_13 + x_14 + x_15 + x_16
 + x_17 + x_18 + x_19 + x_20 + x_21 <= 3
SameWeek_Act_constraint_19: x_10 + x_11 + x_12 + x_13 + x_14 + x_15 + x_16
 + x_17 + x_18 + x_19 + x_20 + x_21 <= 3
SameWeek_Act_constraint_2: x_0 + x_1 + x_2 + x_3 + x_4 + x_5 + x_6 <= 3
SameWeek_Act_constraint_20: x_10 + x_11 + x_12 + x_13 + x_14 + x_15 + x_16
 + x_17 + x_18 + x_19 + x_20 + x_21 <= 3
SameWeek_Act_constraint_21: x_10 + x_11 + x_12 + x_13 + x_14 + x_15 + x_16
 + x_17 + x_18 + x_19 + x_20 + x_21 <= 3
SameWeek_Act_constraint_22: x_22 + x_23 + x_24 + x_25 + x_26 + x_27 + x_28
 + x_29 + x_30 + x_31 + x_32 + x_33 + x_34 + x_35 + x_36 <= 3
SameWeek_Act_constraint_23: x_22 + x_23 + x_24 + x_25 + x_26 + x_27 + x_28
 + x_29 + x_30 + x_31 + x_32 + x_33 + x_34 + x_35 + x_36 <= 3
SameWeek_Act_constraint_24: x_22 + x_23 + x_24 + x_25 + x_26 + x_27 + x_28
 + x_29 + x_30 + x_31 + x_32 + x_33 + x_34 + x_35 + x_36 <= 3
SameWeek_Act_constraint_25: x_22 + x_23 + x_24 + x_25 + x_26 + x_27 + x_28
 + x_29 + x_30 + x_31 + x_32 + x_33 + x_34 + x_35 + x_36 <= 3
SameWeek_Act_constraint_26: x_22 + x_23 + x_24 + x_25 + x_26 + x_27 + x_28
 + x_29 + x_30 + x_31 + x_32 + x_33 + x_34 + x_35 + x_36 <= 3
SameWeek_Act_constraint_27: x_22 + x_23 + x_24 + x_25 + x_26 + x_27 + x_28
 + x_29 + x_30 + x_31 + x_32 + x_33 + x_34 + x_35 + x_36 <= 3
SameWeek_Act_constraint_28: x_22 + x_23 + x_24 + x_25 + x_26 + x_27 + x_28
 + x_29 + x_30 + x_31 + x_32 + x_33 + x_34 + x_35 + x_36 <= 3
SameWeek_Act_constraint_29: x_22 + x_23 + x_24 + x_25 + x_26 + x_27 + x_28
 + x_29 + x_30 + x_31 + x_32 + x_33 + x_34 + x_35 + x_36 <= 3
SameWeek_Act_constraint_3: x_0 + x_1 + x_2 + x_3 + x_4 + x_5 + x_6 <= 3
SameWeek_Act_constraint_30: x_22 + x_23 + x_24 + x_25 + x_26 + x_27 + x_28
 + x_29 + x_30 + x_31 + x_32 + x_33 + x_34 + x_35 + x_36 <= 3
SameWeek_Act_constraint_31: x_22 + x_23 + x_24 + x_25 + x_26 + x_27 + x_28
 + x_29 + x_30 + x_31 + x_32 + x_33 + x_34 + x_35 + x_36 <= 3
SameWeek_Act_constraint_32: x_22 + x_23 + x_24 + x_25 + x_26 + x_27 + x_28
 + x_29 + x_30 + x_31 + x_32 + x_33 + x_34 + x_35 + x_36 <= 3
SameWeek_Act_constraint_33: x_22 + x_23 + x_24 + x_25 + x_26 + x_27 + x_28
 + x_29 + x_30 + x_31 + x_32 + x_33 + x_34 + x_35 + x_36 <= 3
SameWeek_Act_constraint_34: x_22 + x_23 + x_24 + x_25 + x_26 + x_27 + x_28
 + x_29 + x_30 + x_31 + x_32 + x_33 + x_34 + x_35 + x_36 <= 3
SameWeek_Act_constraint_35: x_22 + x_23 + x_24 + x_25 + x_26 + x_27 + x_28
 + x_29 + x_30 + x_31 + x_32 + x_33 + x_34 + x_35 + x_36 <= 3
SameWeek_Act_constraint_36: x_22 + x_23 + x_24 + x_25 + x_26 + x_27 + x_28
 + x_29 + x_30 + x_31 + x_32 + x_33 + x_34 + x_35 + x_36 <= 3
SameWeek_Act_constraint_37: x_37 + x_38 + x_39 + x_40 + x_41 + x_42 + x_43
 + x_44 + x_45 + x_46 + x_47 + x_48 + x_49 + x_50 + x_51 <= 3
SameWeek_Act_constraint_38: x_37 + x_38 + x_39 + x_40 + x_41 + x_42 + x_43
 + x_44 + x_45 + x_46 + x_47 + x_48 + x_49 + x_50 + x_51 <= 3
SameWeek_Act_constraint_39: x_37 + x_38 + x_39 + x_40 + x_41 + x_42 + x_43
 + x_44 + x_45 + x_46 + x_47 + x_48 + x_49 + x_50 + x_51 <= 3
SameWeek_Act_constraint_4: x_0 + x_1 + x_2 + x_3 + x_4 + x_5 + x_6 <= 3
SameWeek_Act_constraint_40: x_37 + x_38 + x_39 + x_40 + x_41 + x_42 + x_43
 + x_44 + x_45 + x_46 + x_47 + x_48 + x_49 + x_50 + x_51 <= 3
SameWeek_Act_constraint_41: x_37 + x_38 + x_39 + x_40 + x_41 + x_42 + x_43
 + x_44 + x_45 + x_46 + x_47 + x_48 + x_49 + x_50 + x_51 <= 3
SameWeek_Act_constraint_42: x_37 + x_38 + x_39 + x_40 + x_41 + x_42 + x_43
 + x_44 + x_45 + x_46 + x_47 + x_48 + x_49 + x_50 + x_51 <= 3
SameWeek_Act_constraint_43: x_37 + x_38 + x_39 + x_40 + x_41 + x_42 + x_43
 + x_44 + x_45 + x_46 + x_47 + x_48 + x_49 + x_50 + x_51 <= 3
SameWeek_Act_constraint_44: x_37 + x_38 + x_39 + x_40 + x_41 + x_42 + x_43
 + x_44 + x_45 + x_46 + x_47 + x_48 + x_49 + x_50 + x_51 <= 3
SameWeek_Act_constraint_45: x_37 + x_38 + x_39 + x_40 + x_41 + x_42 + x_43
 + x_44 + x_45 + x_46 + x_47 + x_48 + x_49 + x_50 + x_51 <= 3
SameWeek_Act_constraint_46: x_37 + x_38 + x_39 + x_40 + x_41 + x_42 + x_43
 + x_44 + x_45 + x_46 + x_47 + x_48 + x_49 + x_50 + x_51 <= 3
SameWeek_Act_constraint_47: x_37 + x_38 + x_39 + x_40 + x_41 + x_42 + x_43
 + x_44 + x_45 + x_46 + x_47 + x_48 + x_49 + x_50 + x_51 <= 3
SameWeek_Act_constraint_48: x_37 + x_38 + x_39 + x_40 + x_41 + x_42 + x_43
 + x_44 + x_45 + x_46 + x_47 + x_48 + x_49 + x_50 + x_51 <= 3
SameWeek_Act_constraint_49: x_37 + x_38 + x_39 + x_40 + x_41 + x_42 + x_43
 + x_44 + x_45 + x_46 + x_47 + x_48 + x_49 + x_50 + x_51 <= 3
SameWeek_Act_constraint_5: x_0 + x_1 + x_2 + x_3 + x_4 + x_5 + x_6 <= 3
SameWeek_Act_constraint_50: x_37 + x_38 + x_39 + x_40 + x_41 + x_42 + x_43
 + x_44 + x_45 + x_46 + x_47 + x_48 + x_49 + x_50 + x_51 <= 3
SameWeek_Act_constraint_51: x_37 + x_38 + x_39 + x_40 + x_41 + x_42 + x_43
 + x_44 + x_45 + x_46 + x_47 + x_48 + x_49 + x_50 + x_51 <= 3
SameWeek_Act_constraint_52: x_52 + x_53 + x_54 + x_55 + x_56 + x_57 + x_58
 + x_59 + x_60 + x_61 + x_62 <= 3
SameWeek_Act_constraint_53: x_52 + x_53 + x_54 + x_55 + x_56 + x_57 + x_58
 + x_59 + x_60 + x_61 + x_62 <= 3
SameWeek_Act_constraint_54: x_52 + x_53 + x_54 + x_55 + x_56 + x_57 + x_58
 + x_59 + x_60 + x_61 + x_62 <= 3
SameWeek_Act_constraint_55: x_52 + x_53 + x_54 + x_55 + x_56 + x_57 + x_58
 + x_59 + x_60 + x_61 + x_62 <= 3
SameWeek_Act_constraint_56: x_52 + x_53 + x_54 + x_55 + x_56 + x_57 + x_58
 + x_59 + x_60 + x_61 + x_62 <= 3
SameWeek_Act_constraint_57: x_52 + x_53 + x_54 + x_55 + x_56 + x_57 + x_58
 + x_59 + x_60 + x_61 + x_62 <= 3
SameWeek_Act_constraint_58: x_52 + x_53 + x_54 + x_55 + x_56 + x_57 + x_58
 + x_59 + x_60 + x_61 + x_62 <= 3
SameWeek_Act_constraint_59: x_52 + x_53 + x_54 + x_55 + x_56 + x_57 + x_58
 + x_59 + x_60 + x_61 + x_62 <= 3
SameWeek_Act_constraint_6: x_0 + x_1 + x_2 + x_3 + x_4 + x_5 + x_6 <= 3
SameWeek_Act_constraint_60: x_52 + x_53 + x_54 + x_55 + x_56 + x_57 + x_58
 + x_59 + x_60 + x_61 + x_62 <= 3
SameWeek_Act_constraint_61: x_52 + x_53 + x_54 + x_55 + x_56 + x_57 + x_58
 + x_59 + x_60 + x_61 + x_62 <= 3
SameWeek_Act_constraint_62: x_52 + x_53 + x_54 + x_55 + x_56 + x_57 + x_58
 + x_59 + x_60 + x_61 + x_62 <= 3
SameWeek_Act_constraint_63: x_63 + x_64 + x_65 + x_66 + x_67 + x_68 + x_69
 + x_70 + x_71 + x_72 + x_73 + x_74 <= 3
SameWeek_Act_constraint_64: x_63 + x_64 + x_65 + x_66 + x_67 + x_68 + x_69
 + x_70 + x_71 + x_72 + x_73 + x_74 <= 3
SameWeek_Act_constraint_65: x_63 + x_64 + x_65 + x_66 + x_67 + x_68 + x_69
 + x_70 + x_71 + x_72 + x_73 + x_74 <= 3
SameWeek_Act_constraint_66: x_63 + x_64 + x_65 + x_66 + x_67 + x_68 + x_69
 + x_70 + x_71 + x_72 + x_73 + x_74 <= 3
SameWeek_Act_constraint_67: x_63 + x_64 + x_65 + x_66 + x_67 + x_68 + x_69
 + x_70 + x_71 + x_72 + x_73 + x_74 <= 3
SameWeek_Act_constraint_68: x_63 + x_64 + x_65 + x_66 + x_67 + x_68 + x_69
 + x_70 + x_71 + x_72 + x_73 + x_74 <= 3
SameWeek_Act_constraint_69: x_63 + x_64 + x_65 + x_66 + x_67 + x_68 + x_69
 + x_70 + x_71 + x_72 + x_73 + x_74 <= 3
SameWeek_Act_constraint_7: x_7 + x_8 + x_9 <= 3
SameWeek_Act_constraint_70: x_63 + x_64 + x_65 + x_66 + x_67 + x_68 + x_69
 + x_70 + x_71 + x_72 + x_73 + x_74 <= 3
SameWeek_Act_constraint_71: x_63 + x_64 + x_65 + x_66 + x_67 + x_68 + x_69
 + x_70 + x_71 + x_72 + x_73 + x_74 <= 3
SameWeek_Act_constraint_72: x_63 + x_64 + x_65 + x_66 + x_67 + x_68 + x_69
 + x_70 + x_71 + x_72 + x_73 + x_74 <= 3
SameWeek_Act_constraint_73: x_63 + x_64 + x_65 + x_66 + x_67 + x_68 + x_69
 + x_70 + x_71 + x_72 + x_73 + x_74 <= 3
SameWeek_Act_constraint_74: x_63 + x_64 + x_65 + x_66 + x_67 + x_68 + x_69
 + x_70 + x_71 + x_72 + x_73 + x_74 <= 3
SameWeek_Act_constraint_8: x_7 + x_8 + x_9 <= 3
SameWeek_Act_constraint_9: x_7 + x_8 + x_9 <= 3
Binaries
x_0
x_1
x_10
x_11
x_12
x_13
x_14
x_15
x_16
x_17
x_18
x_19
x_2
x_20
x_21
x_22
x_23
x_24
x_25
x_26
x_27
x_28
x_29
x_3
x_30
x_31
x_32
x_33
x_34
x_35
x_36
x_37
x_38
x_39
x_4
x_40
x_41
x_42
x_43
x_44
x_45
x_46
x_47
x_48
x_49
x_5
x_50
x_51
x_52
x_53
x_54
x_55
x_56
x_57
x_58
x_59
x_6
x_60
x_61
x_62
x_63
x_64
x_65
x_66
x_67
x_68
x_69
x_7
x_70
x_71
x_72
x_73
x_74
x_8
x_9
End
